342
548
331
235
290
228
481
335
357
376
431
460
385
364
347
417
252
487
480
485
306
345
381
341
325
606
306
294
314
394
701
387
291
524
271
360
462
376
354
300
274
345
310
493
376
455
503
311
237
312
361
332
349
399
390
275
352
433
536
436
390
330
437
351
423
440
221
377
276
344
423
385
536
498
327
414
462
460
361
413
501
365
378
391
654
399
439
457
323
606
408
426
374
505
451
278
342
286
410
311
